Results/Experiment 2 Results/New Benchmark/output_p1_0.00_p2_0.00_n_40_11.lp
clingo version 5.4.0
Reading from tempSRTISolver.lp ...
Solving...
Answer: 1
matched(8,2) matched(6,3) matched(1,4) matched(7,5) matched(3,6) matched(5,7) matched(2,8) matched(9,10) matched(12,11) matched(11,12) matched(10,9) matched(18,14) matched(13,15) matched(20,16) matched(19,17) matched(14,18) matched(17,19) matched(16,20) matched(15,13) matched(26,22) matched(21,23) matched(28,24) matched(27,25) matched(22,26) matched(25,27) matched(24,28) matched(23,21) matched(31,30) matched(30,31) matched(29,32) matched(32,29) matched(39,34) matched(38,35) matched(33,36) matched(40,37) matched(35,38) matched(34,39) matched(37,40) matched(36,33) matched(4,1)
Optimization: 361
Answer: 2
matched(8,2) matched(6,3) matched(1,4) matched(7,5) matched(3,6) matched(5,7) matched(2,8) matched(9,10) matched(12,11) matched(11,12) matched(10,9) matched(18,14) matched(13,15) matched(20,16) matched(19,17) matched(14,18) matched(17,19) matched(16,20) matched(15,13) matched(26,22) matched(21,23) matched(28,24) matched(27,25) matched(22,26) matched(25,27) matched(24,28) matched(23,21) matched(31,30) matched(30,31) matched(29,32) matched(32,29) matched(40,34) matched(38,35) matched(33,36) matched(39,37) matched(35,38) matched(37,39) matched(34,40) matched(36,33) matched(4,1)
Optimization: 347
Answer: 3
matched(8,2) matched(6,3) matched(1,4) matched(7,5) matched(3,6) matched(5,7) matched(2,8) matched(9,10) matched(12,11) matched(11,12) matched(10,9) matched(18,14) matched(13,15) matched(20,16) matched(19,17) matched(14,18) matched(17,19) matched(16,20) matched(15,13) matched(26,22) matched(21,23) matched(28,24) matched(27,25) matched(22,26) matched(25,27) matched(24,28) matched(23,21) matched(31,30) matched(30,31) matched(29,32) matched(32,29) matched(38,34) matched(33,35) matched(40,36) matched(39,37) matched(34,38) matched(37,39) matched(36,40) matched(35,33) matched(4,1)
Optimization: 346
OPTIMUM FOUND

Models       : 3
  Optimum    : yes
Optimization : 346
Calls        : 1
Time         : 2.131s (Solving: 0.32s 1st Model: 0.00s Unsat: 0.32s)
CPU Time     : 2.106s
